c   #vars: 121   #clauses: 565   #literals: 1568
c 
p cnf 121 565
-1 -2 0
16 17 -44 70 0
-4 -5 0
-6 -7 0
-8 -9 0
92 93 109 110 0
92 93 117 118 0
-10 -11 0
-12 -13 0
3 -12 86 87 0
32 33 35 36 0
-14 -15 0
-16 -17 0
-18 -19 0
-20 -21 0
-22 -23 0
25 -79 117 118 0
31 56 57 -101 0
-27 -28 0
-29 -30 0
34 68 69 -84 0
-32 -33 0
41 -60 105 106 0
-35 -36 0
-37 -38 0
-39 -40 0
44 64 65 -70 0
-42 -43 0
53 -64 107 108 0
-45 -46 0
-47 -48 0
-49 -50 0
-51 -52 0
-54 -55 0
3 12 13 -86 0
-56 -57 0
-58 -59 0
-60 -61 0
-62 -63 0
-64 -65 0
-66 -67 0
-68 -69 0
24 32 33 -85 0
-71 -72 0
-73 -74 0
-75 76 88 89 0
8 9 -30 85 0
-77 -78 0
-79 -80 0
-81 -82 0
-83 -84 0
-4 8 9 98 0
-86 -87 0
-88 -89 0
-90 -91 0
-92 -93 0
-94 -95 0
-96 -97 0
4 5 -24 119 0
-99 -100 0
4 5 18 19 0
-101 -102 0
-103 -104 0
-105 -106 0
-107 -108 0
-109 -110 0
-111 -112 0
18 19 94 95 0
-113 -114 0
1 2 77 78 0
-115 -116 0
-117 -118 0
22 23 113 114 0
6 7 111 112 0
-120 -121 0
47 48 51 52 0
-1 -49 0
-2 -50 0
-1 -62 0
-2 -63 0
25 60 61 -79 0
41 -51 60 61 0
3 34 -84 -86 0
-1 -77 0
-2 -78 0
25 60 61 -117 0
4 5 -17 119 0
-2 -98 0
16 17 -39 70 0
-3 -13 0
53 -54 64 65 0
41 -51 105 106 0
53 64 65 -107 0
-3 -87 0
101 102 117 118 0
18 19 37 38 0
-4 -18 0
-5 -19 0
58 59 109 110 0
-4 -56 0
-5 -57 0
-4 -90 0
-5 -91 0
77 78 99 100 0
-4 -94 0
-5 -95 0
-4 -96 0
-5 -97 0
16 17 -24 119 0
-5 -98 0
103 104 117 118 0
-4 -111 0
-5 -112 0
60 61 88 89 0
-4 -119 0
-6 -27 0
-7 -28 0
8 9 99 100 0
-6 -62 0
-7 -63 0
32 33 73 74 0
-6 -66 0
-7 -67 0
8 9 27 28 0
-6 -71 0
-7 -72 0
31 -94 101 102 0
-6 -111 0
-7 -112 0
8 9 10 11 0
-6 -113 0
-7 -114 0
-8 -10 0
-9 -11 0
22 23 120 121 0
-8 -12 0
-9 -13 0
20 21 99 100 0
-8 -27 0
-9 -28 0
22 23 51 52 0
-8 -85 0
-1 8 9 98 0
8 9 12 13 0
-5 16 17 119 0
-9 -98 0
73 74 103 104 0
-8 -99 0
-9 -100 0
79 80 92 93 0
-16 27 28 75 0
27 28 75 -76 0
-16 75 76 -89 0
-11 -26 0
-10 26 90 91 0
-10 -71 0
-11 -72 0
18 19 20 21 0
-10 -107 0
-11 -108 0
10 11 71 72 0
-12 -27 0
-13 -28 0
14 15 18 19 0
-12 -35 0
-13 -36 0
45 46 73 74 0
-12 -37 0
-13 -38 0
-12 -51 0
-13 -52 0
-16 44 -65 70 0
-12 -103 0
-13 -104 0
4 5 94 95 0
-12 -111 0
-13 -112 0
-5 24 -32 119 0
14 15 115 116 0
-10 26 56 57 0
4 5 96 97 0
-14 -16 0
-15 -17 0
37 38 58 59 0
-14 -18 0
-15 -19 0
14 15 20 21 0
-14 -20 0
-15 -21 0
3 12 13 -34 0
-9 24 -32 85 0
39 40 113 114 0
-14 -56 0
-15 -57 0
54 55 92 93 0
-14 -90 0
-15 -91 0
58 59 107 108 0
-14 -92 0
-15 -93 0
1 2 49 50 0
-14 -115 0
-15 -116 0
-17 -70 0
-27 -38 75 76 0
-38 76 88 89 0
-17 -75 0
-17 24 -32 119 0
-16 -119 0
37 38 66 67 0
-18 -20 0
-19 -21 0
29 30 37 38 0
-18 -37 0
-19 -38 0
24 -30 85 -119 0
-18 -62 0
-19 -63 0
42 43 107 108 0
-18 -77 0
-19 -78 0
49 50 99 100 0
-18 -94 0
-19 -95 0
10 11 26 -56 0
-20 -66 0
-21 -67 0
3 34 -69 -86 0
-20 -81 0
-21 -82 0
90 91 120 121 0
-20 -86 0
-21 -87 0
88 89 101 102 0
-20 -88 0
-21 -89 0
39 40 103 104 0
-20 -99 0
-21 -100 0
94 95 113 114 0
-20 -117 0
-21 -118 0
-22 -51 0
-23 -52 0
54 55 66 67 0
-22 -64 0
-23 -65 0
42 43 54 55 0
-22 -88 0
-23 -89 0
105 106 109 110 0
-22 -105 0
-23 -106 0
29 30 54 55 0
-22 -113 0
-23 -114 0
6 7 66 67 0
-22 -120 0
-23 -121 0
68 69 99 100 0
25 -60 117 118 0
-24 -33 0
12 13 111 112 0
25 79 80 -117 0
1 2 -8 98 0
6 7 62 63 0
25 -60 79 80 0
4 5 90 91 0
31 56 57 -94 0
-25 -61 0
68 69 73 74 0
31 94 95 -101 0
-25 -80 0
-39 44 -65 70 0
31 -56 94 95 0
-25 -118 0
-16 -38 75 76 0
4 5 -8 98 0
-26 -57 0
14 15 90 91 0
24 32 33 -119 0
-26 -91 0
62 63 101 102 0
37 38 76 -89 0
-28 -75 0
6 7 113 114 0
-29 -37 0
-30 -38 0
49 50 71 72 0
-29 -54 0
-30 -55 0
12 13 37 38 0
-29 -85 0
1 2 -4 98 0
22 23 64 65 0
-29 -86 0
-30 -87 0
-3 34 68 69 0
-31 -57 0
29 30 86 87 0
34 -69 83 84 0
-31 -95 0
45 46 71 72 0
-3 34 83 84 0
-31 -102 0
-32 -35 0
-33 -36 0
-32 -73 0
-33 -74 0
47 48 96 97 0
-32 -79 0
-33 -80 0
18 19 77 78 0
-32 -90 0
-33 -91 0
20 21 66 67 0
-34 -68 0
41 51 52 -105 0
1 2 62 63 0
-34 -83 0
41 51 52 -60 0
45 46 96 97 0
-35 -37 0
-36 -38 0
35 36 58 59 0
-35 -47 0
-36 -48 0
54 55 83 84 0
-35 -58 0
-36 -59 0
32 33 79 80 0
14 15 92 93 0
41 60 61 -105 0
107 108 120 121 0
-35 -92 0
-36 -93 0
83 84 120 121 0
-37 -58 0
-38 -59 0
-16 39 40 70 0
-37 -66 0
-38 -67 0
-37 -76 0
8 9 -24 85 0
-40 -70 0
-39 -81 0
-40 -82 0
22 23 88 89 0
-39 -103 0
-40 -104 0
12 13 27 28 0
-39 -113 0
-40 -114 0
10 11 26 -90 0
44 -46 64 65 0
-41 -52 0
68 69 86 87 0
44 45 46 -70 0
-41 -61 0
-16 44 -46 70 0
44 45 46 -65 0
-41 -106 0
20 21 86 87 0
-42 -54 0
-43 -55 0
-17 24 -85 119 0
-42 -62 0
-43 -63 0
31 -56 101 102 0
-42 -103 0
-43 -104 0
26 -56 90 91 0
-42 -107 0
-43 -108 0
83 84 113 114 0
-44 -45 0
53 -54 107 108 0
56 57 68 69 0
-44 -64 0
53 54 55 -107 0
3 -12 34 -84 0
-1 4 5 98 0
53 54 55 -64 0
-45 -47 0
-46 -48 0
45 46 60 61 0
-45 -60 0
-46 -61 0
60 61 105 106 0
-45 -64 0
-46 -65 0
60 61 94 95 0
-45 -71 0
-46 -72 0
39 40 81 82 0
-45 -73 0
-46 -74 0
4 5 56 57 0
-45 -96 0
-46 -97 0
58 59 88 89 0
-47 -51 0
-48 -52 0
12 13 35 36 0
-47 -96 0
-48 -97 0
-39 44 -46 70 0
-49 -71 0
-50 -72 0
-27 75 76 -89 0
-49 -83 0
-50 -84 0
14 15 56 57 0
-49 -99 0
-50 -100 0
16 17 -27 75 0
-53 -55 0
16 17 75 -76 0
-53 -65 0
20 21 88 89 0
-53 -108 0
6 7 71 72 0
-54 -66 0
-55 -67 0
56 57 79 80 0
-54 -83 0
-55 -84 0
-54 -92 0
-55 -93 0
22 23 105 106 0
24 -30 -32 85 0
101 102 109 110 0
-56 -68 0
-57 -69 0
39 40 -44 70 0
-56 -79 0
-57 -80 0
83 84 96 97 0
-58 -64 0
-59 -65 0
49 50 83 84 0
-58 -88 0
-59 -89 0
-58 -107 0
-59 -108 0
81 82 111 112 0
-58 -109 0
-59 -110 0
60 61 62 63 0
-60 -62 0
-61 -63 0
18 19 62 63 0
-60 -88 0
-61 -89 0
66 67 71 72 0
-60 -94 0
-61 -95 0
81 82 109 110 0
-60 -105 0
-61 -106 0
45 46 64 65 0
-62 -71 0
-63 -72 0
58 59 64 65 0
-62 -101 0
-63 -102 0
-5 24 -85 119 0
-64 -115 0
-65 -116 0
6 7 27 28 0
-64 -120 0
-65 -121 0
-66 -71 0
-67 -72 0
77 78 81 82 0
-68 -73 0
-69 -74 0
32 33 90 91 0
-68 -86 0
-69 -87 0
42 43 103 104 0
-68 -99 0
-69 -100 0
62 63 71 72 0
-68 -101 0
-69 -102 0
4 5 111 112 0
-68 -105 0
-69 -106 0
71 72 88 89 0
-71 -88 0
-72 -89 0
35 36 92 93 0
-73 -86 0
-74 -87 0
-73 -103 0
-74 -104 0
45 46 47 48 0
37 38 -75 76 0
-24 29 30 85 0
20 21 117 118 0
-76 -88 0
-9 29 30 85 0
26 56 57 -90 0
-77 -81 0
-78 -82 0
12 13 103 104 0
-77 -99 0
-78 -100 0
101 102 115 116 0
-79 -92 0
-80 -93 0
-81 -109 0
-82 -110 0
42 43 62 63 0
-81 -111 0
-82 -112 0
68 69 105 106 0
-83 -96 0
-84 -97 0
73 74 86 87 0
-83 -113 0
-84 -114 0
35 36 47 48 0
-83 -120 0
-84 -121 0
68 69 101 102 0
-88 -101 0
-89 -102 0
-9 24 85 -119 0
-90 -120 0
-91 -121 0
111 112 115 116 0
-92 -109 0
-93 -110 0
20 21 81 82 0
-92 -117 0
-93 -118 0
35 36 37 38 0
-94 -113 0
-95 -114 0
14 15 16 17 0
-101 -109 0
-102 -110 0
3 -34 86 87 0
-101 -115 0
-102 -116 0
3 -12 34 -69 0
-101 -117 0
-102 -118 0
12 13 51 52 0
-103 -117 0
-104 -118 0
10 11 107 108 0
-105 -109 0
-106 -110 0
107 108 113 114 0
-107 -113 0
-108 -114 0
64 65 115 116 0
-107 -120 0
-108 -121 0
64 65 120 121 0
-111 -115 0
-112 -116 0
